(set-logic LIA)
(set-info :license "https://creativecommons.org/licenses/by/4.0/")
(set-info :status "unsat")
(set-info :smt-lib-version "2.6")
(declare-fun ~a3~0 () Int)
(assert
  (and
    (not
      (exists ((v_prenex_4 Int) (v_~a3~0_2176 Int) (reminder_2 Int) (quotient_0 Int) (reminder_1 Int))
        (and
          (<= (* (- 1) v_~a3~0_2176) (- 116))
          (<= (* 1 v_prenex_4) 210149)
          (<= (+ (* 1 ~a3~0) (* (- 1) quotient_0)) 219840)
          (<= (+ (* 1 v_prenex_4) (* (- 1) reminder_1)) 336)
          (not
            (= (* 1 reminder_2) 0)
          )
          (<= (+ (* (- 1) v_prenex_4) (* 5 quotient_0)) (- 210150))
          (<= (+ (* 1 v_prenex_4) (* (- 5) quotient_0)) 210154)
          (<= (+ (* (- 1) v_prenex_4) (* 5 reminder_2)) 0)
          (<= (+ (* 1 v_prenex_4) (* (- 5) reminder_2)) 4)
          (<= (+ (* (- 1) v_~a3~0_2176) (* 55 reminder_1)) 0)
          (<= (+ (* 1 v_~a3~0_2176) (* (- 55) reminder_1)) 54)
        )
      )
    )
    (not
      (exists ((v_~a3~0_2176 Int) (v_~a3~0_2177 Int) (reminder_3 Int) (quotient_4 Int))
        (and
          (<= (* (- 1) v_~a3~0_2176) (- 116))
          (<= (* (- 1) v_~a3~0_2177) (- 210150))
          (<= (+ (* 1 v_~a3~0_2177) (* (- 1) reminder_3)) 336)
          (<= (+ (* 1 ~a3~0) (* (- 1) quotient_4)) 219839)
          (<= (+ (* (- 1) v_~a3~0_2176) (* 55 reminder_3)) 0)
          (<= (+ (* 1 v_~a3~0_2176) (* (- 55) reminder_3)) 54)
          (<= (+ (* (- 1) v_~a3~0_2177) (* 5 quotient_4)) (- 210150))
          (<= (+ (* 1 v_~a3~0_2177) (* (- 5) quotient_4)) 210154)
        )
      )
    )
    (exists ((v_prenex_3 Int) (v_~a3~0_2176 Int) (reminder_5 Int) (quotient_6 Int) (reminder_7 Int))
      (and
        (= (* 1 reminder_5) 0)
        (<= (* (- 1) v_~a3~0_2176) (- 116))
        (<= (+ (* 1 ~a3~0) (* (- 1) quotient_6)) 219839)
        (<= (+ (* 1 v_prenex_3) (* (- 1) reminder_7)) 336)
        (<= (+ (* (- 1) v_prenex_3) (* 5 reminder_5)) 0)
        (<= (+ (* 1 v_prenex_3) (* (- 5) reminder_5)) 4)
        (<= (+ (* (- 1) v_prenex_3) (* 5 quotient_6)) (- 210150))
        (<= (+ (* 1 v_prenex_3) (* (- 5) quotient_6)) 210154)
        (<= (+ (* (- 1) v_~a3~0_2176) (* 55 reminder_7)) 0)
        (<= (+ (* 1 v_~a3~0_2176) (* (- 55) reminder_7)) 54)
      )
    )
  )
)
(check-sat)

